graph_generation/data/mip/tcsp/hexagonal_lattice_N_10_task_outside_shortest_path.txt
296 240 1 240 63
1 2 17
1 22 10
2 3 12
3 4 2
3 24 19
4 5 14
5 6 1
5 26 14
7 8 15
7 28 14
9 10 4
9 30 4
10 11 11
11 12 6
11 32 7
12 13 19
13 14 9
13 34 7
14 15 10
15 36 13
16 17 19
17 18 12
17 38 5
18 19 13
19 20 11
19 40 7
20 21 17
21 42 3
22 23 8
23 24 5
23 45 13
25 26 3
25 47 7
26 27 4
27 28 10
27 49 4
28 29 12
29 30 14
31 53 5
32 33 8
33 34 19
33 55 16
34 35 1
35 36 9
35 57 14
36 37 14
37 38 5
37 59 19
38 39 13
39 40 11
39 61 18
40 41 8
41 42 8
41 63 7
42 43 8
44 45 3
44 66 9
45 46 3
46 47 15
47 48 9
48 49 3
48 70 2
49 50 2
50 51 14
52 53 10
52 74 5
53 54 17
54 55 1
54 76 12
55 56 1
56 57 8
57 58 13
58 59 11
58 80 18
59 60 2
60 61 11
60 82 8
61 62 1
62 63 18
62 84 16
63 64 4
64 65 8
64 86 13
66 67 10
67 68 9
67 89 7
68 69 17
69 70 9
69 91 6
70 71 6
71 72 19
71 93 19
72 73 4
73 74 16
73 95 19
74 75 11
75 76 14
75 97 12
76 77 9
77 78 4
77 99 1
78 79 6
79 80 5
79 101 11
80 81 16
81 82 3
82 83 3
83 105 2
84 85 3
85 86 6
85 107 3
86 87 13
88 89 15
89 90 18
90 91 7
90 112 11
91 92 1
92 93 15
92 114 1
93 94 2
94 95 15
94 116 10
95 96 18
96 97 18
96 118 19
98 99 7
98 120 12
100 101 6
100 122 13
101 102 13
102 103 6
102 124 14
103 104 5
104 126 9
105 106 1
106 107 10
107 108 6
108 109 4
108 130 12
110 111 8
111 112 18
111 133 17
112 113 12
113 114 7
113 135 11
114 115 7
115 116 17
115 137 2
116 117 2
117 118 14
117 139 14
118 119 1
119 120 1
119 141 11
120 121 17
121 122 2
121 143 12
122 123 13
123 124 12
124 125 4
125 126 13
125 147 11
127 128 12
127 149 5
128 129 8
129 151 1
131 153 8
132 133 4
132 154 1
133 134 10
134 135 7
135 136 9
136 137 13
136 158 15
137 138 10
138 139 15
138 160 13
139 140 9
140 141 1
141 142 1
142 143 2
142 164 17
144 145 6
144 166 3
145 146 6
146 147 18
146 168 17
147 148 17
148 149 14
148 170 16
149 150 18
150 151 11
150 172 12
151 152 8
152 153 10
152 174 18
154 155 15
155 156 1
156 157 11
157 158 10
157 179 7
158 159 11
159 160 8
159 181 16
160 161 16
161 162 12
161 183 13
162 163 1
163 164 14
163 185 14
165 166 10
165 187 8
166 167 1
167 168 6
167 189 15
169 170 2
169 191 5
170 171 19
171 172 9
171 193 6
172 173 18
173 174 3
173 195 3
174 175 1
176 177 13
176 198 5
177 178 13
178 179 1
178 200 12
179 180 2
180 181 9
180 202 18
181 182 8
182 183 8
182 204 10
183 184 17
184 185 12
184 206 1
185 186 2
186 187 18
187 188 17
188 189 6
188 210 14
190 191 17
191 192 4
192 214 19
193 194 4
194 195 3
194 216 17
196 197 18
196 218 15
198 199 11
199 200 16
199 220 4
201 202 9
201 222 3
202 203 17
203 204 18
203 224 3
204 205 1
205 206 8
205 226 3
206 207 4
207 208 2
207 228 7
208 209 9
209 210 19
209 230 2
210 211 17
211 212 3
211 232 7
212 213 11
213 214 1
213 234 11
214 215 14
215 216 14
215 236 4
216 217 4
217 218 10
217 238 1
218 219 17
219 240 5
220 221 6
221 222 18
223 224 17
224 225 12
225 226 12
227 228 5
229 230 7
230 231 17
231 232 9
232 233 18
234 235 13
237 238 1
238 239 3
239 240 7
2 199
3 97
4 139
6 124
9 24
11 150
12 32
13 164
14 25
15 96
17 57
18 28
21 123
31 169
34 142
35 82
36 177
39 120
40 62
42 98
43 63
49 105
50 71
52 89
53 68
55 148
59 60
61 221
73 196
76 146
78 158
81 195
83 233
85 226
86 134
87 210
94 104
95 192
99 162
100 193
103 187
107 109
110 191
112 220
116 225
118 219
127 167
128 156
129 222
132 174
133 179
145 203
147 178
152 155
154 205
157 186
163 218
171 176
180 236
188 237
197 198
200 223
202 227
